31
69
112
141
179
224
257
297
328
373
400
443
481
519
546
582
631
671
692
732
772
804
848
894
917
957
993
1028
1051
1084
1124
1167
1211
1238
1297
1302
1347
1395
1429
1455
1503
1528
1578
1610
1641
1667
1696
1749
1791
